NAME: grubhub-02-3
TYPE: TSP
COMMENT: size=2 instance=3
DIMENSION: 6
EDGE_WEIGHT_TYPE: EXPLICIT
EDGE_WEIGHT_FORMAT : LOWER_DIAG_ROW
EDGE_WEIGHT_SECTION
0
0 0
399 0 0
225 0 339 0
560 0 428 569 0
324 0 226 168 483 0
NODE_COORD_SECTION
+0 8 1000
-0 8 1000
+1 281 23
-1 34 387
+2 982 238
-2 63 135
PRECEDENCE_SECTION
+0 -0
+1 -1
+2 -2
EOF
